# Objective value = 3.0477732039539410e+02
x[0] 1
x[1] 0
x[2] 1
x[3] 1
x[4] 0.999999696831783
x[5] 0
x[6] 1
x[7] 0
x[8] -1.0448916515297061e-07
x[9] 0
x[10] 0
x[11] 0
x[12] 1
x[13] 2.9593879751124084e-07
x[14] -1.0448916487604265e-07
x[15] 0
x[16] 0
x[17] 0
x[18] 1
x[19] 1.0000001044312596e+00
x[20] -1.0448916438378554e-07
x[21] 0
x[22] 1
x[23] -1.0115583132066471e-07
x[24] 1.0000004179014390e+00
x[25] 0
x[26] 0
x[27] 1
x[28] 0
x[29] 0
x[30] 1
x[31] 0
x[32] -1.0448916465399805e-07
x[33] 1
x[34] 1
x[35] 0
x[36] 1
x[37] 0
x[38] 1
x[39] 0
x[40] -2.0897832975208530e-07
x[41] 1
x[42] 3.0639495605480823e-07
x[43] 1
x[44] 1
x[45] 1
x[46] 0
x[47] -1.0448916487604265e-07
x[48] 0
x[49] 1
x[50] 1
x[51] 0
x[52] 0
x[53] 1.0000004179212461e+00
x[54] -1.0448916457608180e-07
x[55] 1
x[56] 0
x[57] 1
x[58] 0
x[59] 0
x[60] 0
x[61] 9.9999969349844964e-01
x[62] 1
x[63] 1.0000001044278073e+00
x[64] 1
x[65] 0
x[66] 0
x[67] 1
x[68] -1.0448916465399805e-07
x[69] 1
x[70] 0
x[71] 0
x[72] 0
x[73] 0
x[74] 0
x[75] 1
x[76] 1
x[77] 1.0000004178717454e+00
x[78] 0
x[79] -1.0808559592428916e-07
x[80] 1
x[81] 1.0000000626291146e+00
x[82] 0
x[83] 1
x[84] 1
x[85] 0
x[86] 1
x[87] 0
x[88] 0
x[89] 0
x[90] 0
x[91] 0
x[92] 0
x[93] 0
x[94] 1
x[95] 1
x[96] 1.0000001044341094e+00
x[97] 1
x[98] 0
x[99] 0
x[100] 1.0000000591747260e+00
x[101] 0
x[102] 1
x[103] 1
x[104] 0
x[105] 1.0000001044263576e+00
x[106] 1
x[107] 1
x[108] 0
x[109] -3.3436532698161159e-07
x[110] -1.0448916515759988e-07
x[111] 0
x[112] 1
x[113] 1
x[114] 1.0000004145450456e+00
x[115] 1
x[116] 1
x[117] 9.9999970739453581e-01
x[118] 1
x[119] 1.0000000481298388e+00
x[120] 0
x[121] 1
x[122] 0
x[123] 1
x[124] 0
x[125] 1
x[126] 1
x[127] 1
x[128] 0
x[129] 1
x[130] 0
x[131] 1
x[132] 0
x[133] 1
x[134] 1
x[135] 1
x[136] 1
x[137] 1
x[138] 0
x[139] 0
x[140] 1
x[141] 0
x[142] 1
x[143] 1
x[144] -1.0448916457608180e-07
x[145] 1
x[146] 1.0000001044097448e+00
x[147] 0
x[148] 1
x[149] 1
x[150] 0
x[151] 1
x[152] 1
x[153] 1
x[154] 0
x[155] 1
x[156] 1
x[157] -3.3436532698161159e-07
x[158] -4.1795665883803679e-07
x[159] 1.0000000626516008e+00
x[160] 1
x[161] 1.8244988429065292e-07
x[162] 1
x[163] 1.0000001043753790e+00
x[164] 1.0000001043329927e+00
x[165] 1
x[166] 1
x[167] 0
x[168] 1
x[169] 1
x[170] 1
x[171] 0
x[172] 1.0000001044470481e+00
x[173] 1
x[174] 1.0000000294265465e+00
x[175] 1
x[176] 0
x[177] 1.0000001044488467e+00
x[178] 1
x[179] 0
x[180] 9.9999983064106512e-01
x[181] 1
x[182] -1.0448916443195344e-07
x[183] 1
x[184] 1.0000004179059838e+00
x[185] 1
x[186] 1
x[187] 1
x[188] 4.1740242201835861e-08
x[189] 1.0000001043916160e+00
x[190] 0
x[191] 0
x[192] 0
x[193] 0
x[194] 1
x[195] -4.1795665883557462e-07
x[196] 0
x[197] 1
x[198] 0
x[199] 0
x[200] 0
x[201] 1
x[202] 1
x[203] 1
x[204] 1
x[205] 0
x[206] 1
x[207] 1.0000002645015325e+00
x[208] 0
x[209] -2.9605263573984075e-08
x[210] 0
x[211] 0
x[212] 1
x[213] -5.9210526259789731e-08
x[214] 1
x[215] -2.9605263573984075e-08
x[216] 0
x[217] 1
x[218] -6.2693498792398817e-08
x[219] 0
x[220] 0
x[221] 1
x[222] -1.0448916466964134e-07
x[223] 0
x[224] 1
x[225] 1
x[226] 0
x[227] 0
x[228] 0
x[229] 0
x[230] -1.0448916465399805e-07
x[231] 0
x[232] 0
x[233] 1
x[234] 0
x[235] 0
x[236] 1
x[237] 1
x[238] 2.2968087008729880e-07
x[239] 0
x[240] -1.0448916487604265e-07
x[241] -2.9605263573984075e-08
x[242] 1.0000001043480060e+00
x[243] -2.08978329641063e-07
x[244] -3.5541279946695832e-07
x[245] 1
x[246] -4.1121171235710158e-07
x[247] 1
x[248] 0
x[249] 9.9999969349844953e-01
x[250] 1
x[251] 0
x[252] 1
x[253] 0
x[254] 1
x[255] -1.0448916465399805e-07
x[256] 0
x[257] 1
x[258] 1
x[259] 0
x[260] -1.0115583132066471e-07
x[261] -1.0109792621355e-07
x[262] 0
x[263] 1
x[264] 0
x[265] -4.1795665883803679e-07
x[266] 0
x[267] 1
x[268] 1
x[269] 1.0000000295673825e+00
x[270] 0
x[271] 1.0000000452057498e+00
x[272] 1
x[273] 0
x[274] 1
x[275] 1
x[276] 0
x[277] 0
x[278] 9.9999983064106512e-01
x[279] -1.0115583124274846e-07
x[280] 1
x[281] 1.0000002089393218e+00
x[282] 1
x[283] 3.0628823260506053e-07
x[284] 1
x[285] 1
x[286] -1.0448916457608180e-07
x[287] 1
x[288] 1
x[289] 0
x[290] 1
x[291] 0
x[292] 1.0000001034645354e+00
x[293] 0
x[294] 0
x[295] 1
x[296] -1.0448916466964134e-07
x[297] 1
x[298] 1
x[299] 0
x[300] 1
x[301] 1.0000001043989555e+00
x[302] 0
x[303] 1.0000000626239780e+00
x[304] 1
x[305] 1
x[306] 0
x[307] 1
x[308] 1
x[309] 0
x[310] 1
x[311] 0
x[312] 0
x[313] 1.7265508222044902e-07
x[314] 0
x[315] -1.0115583132066471e-07
x[316] 1
x[317] 0
x[318] 1
x[319] -1.0448916443195344e-07
x[320] -5.9210526703878941e-08
x[321] 0
x[322] 1
x[323] 0
x[324] 0
x[325] 1
x[326] 0
x[327] 1
x[328] 1
x[329] 0
x[330] 1.0000000622968039e+00
x[331] 0
x[332] 0
x[333] 0
x[334] 0
x[335] -1.2190402424908323e-07
x[336] 1
x[337] 0
x[338] 0
x[339] 1.0000001043957620e+00
x[340] 1
x[341] 1
x[342] 0
x[343] 1
x[344] 0
x[345] 0
x[346] 1
x[347] 0
x[348] 0
x[349] 1
x[350] 0
x[351] 0
x[352] 1
x[353] 1
x[354] 1.0000000623083
x[355] 1
x[356] 1
x[357] 1.0000001636463585e+00
x[358] 1
x[359] 1
x[360] 1
x[361] 1
x[362] 0
x[363] 1
x[364] 0
x[365] -4.1795665883803679e-07
x[366] 0
x[367] 1
x[368] 0
x[369] 0
x[370] 0
x[371] 0
x[372] 1
x[373] 1
x[374] 0
x[375] -1.0448916465399805e-07
x[376] 0
x[377] 1
x[378] 1
x[379] 1
x[380] 1
x[381] 0
x[382] 0
x[383] 1
x[384] 1
x[385] -1.0448916465399805e-07
x[386] 9.9999982082559136e-01
x[387] 0
x[388] -1.6384933010377531e-07
x[389] 1
x[390] 1.0000002088505227e+00
x[391] 0
x[392] 0
x[393] 1
x[394] 0
x[395] -1.0448916465399805e-07
x[396] 0
x[397] 1
x[398] 0
x[399] 0
x[400] 1.0000001044425573e+00
x[401] 0
x[402] 1
x[403] 1
x[404] 1
x[405] 1
x[406] 1
x[407] 1
x[408] 0
x[409] 1
x[410] 9.9999954358100784e-01
x[411] 0
x[412] 1
x[413] 0
x[414] 0
x[415] 1
x[416] 1
x[417] 1
x[418] 0
x[419] 0
x[420] 1
x[421] 0
x[422] 1.0000000626224788e+00
x[423] 0
x[424] 1
x[425] 1
x[426] 0
x[427] 0
x[428] 1.0000001041732030e+00
x[429] 0
x[430] -1.0448916487604265e-07
x[431] 0
x[432] 1
x[433] 0
x[434] 0
x[435] 1.0000003587110009e+00
x[436] -5.9210526703878941e-08
x[437] 0
x[438] 0
x[439] 0
x[440] 1
x[441] 1.0000000626371948e+00
x[442] 0
x[443] 0
x[444] 0
x[445] -2.9605263466014023e-08
x[446] 0
x[447] 0
x[448] -3.5874613280029166e-07
x[449] 1
x[450] 9.9999991292569446e-01
x[451] 1
x[452] 0
x[453] 0
x[454] 1
x[455] 1.0000003343088912e+00
x[456] 1
x[457] 0
x[458] 0
x[459] -2.9605263462777206e-08
x[460] 0
x[461] 1
x[462] 0
x[463] 0
x[464] 1.0000000747873408e+00
x[465] 0
x[466] 1
x[467] 1.0000000591665910e+00
x[468] 0
x[469] 1
x[470] 1
x[471] -9.9489164768378061e-08
x[472] 0
x[473] 1
x[474] 1
x[475] 0
x[476] 0
x[477] 0
x[478] -1.0115583132066471e-07
x[479] 0
x[480] 1
x[481] 0
x[482] 0
x[483] 0
x[484] 0
x[485] 1
x[486] 1.0000001043827578e+00
x[487] 1
x[488] 1
x[489] 1
x[490] 1
x[491] 1.0000001044403415e+00
x[492] 4.5961529837708771e-07
x[493] 1
x[494] 0
x[495] 1
x[496] 1
x[497] -1.0448916457608180e-07
x[498] 0
x[499] 1
x[500] 1
x[501] 1
x[502] 0
x[503] 0
x[504] 1
x[505] 0
x[506] 0
x[507] 0
x[508] 0
x[509] 0
x[510] 1
x[511] 1
x[512] 0
x[513] -1.0448916466964134e-07
x[514] 0
x[515] 0
x[516] 0
x[517] 1
x[518] 1
x[519] 1
x[520] 0
x[521] 1
x[522] 1
x[523] 1.0000001044272901e+00
x[524] 1
x[525] 1
x[526] 1
x[527] 1
x[528] 1.0000000626086589e+00
x[529] 0
x[530] 0
x[531] 0
x[532] 1
x[533] 1
x[534] 0
x[535] 0
x[536] 1
x[537] 0
x[538] -4.1795665883803679e-07
x[539] 0
x[540] 1
x[541] 9.9999969683178291e-01
x[542] 0
x[543] -1.0448916435562285e-07
x[544] -1.0448916443195344e-07
x[545] 0
x[546] 1
x[547] 9.9999970728069931e-01
x[548] 1.7260899885782804e-07
x[549] 0
x[550] 0
x[551] 0
x[552] 1
x[553] 1
x[554] 1
x[555] 1
x[556] 2.0149835570264251e-07
x[557] 1.0000000579821451e+00
x[558] 1
x[559] 1.0000003587119495e+00
x[560] 1.0000001044240439e+00
x[561] -6.2693498745649070e-08
x[562] 0
x[563] 1
x[564] 3.0645864619683248e-07
x[565] 1
x[566] 1.0000000626291607e+00
x[567] 1.0000001044269888e+00
x[568] 1
x[569] 1.0000000626404302e+00
x[570] 1
x[571] 0
x[572] 1.0000001044398223e+00
x[573] 1
x[574] 0
x[575] 0
x[576] 0
x[577] 0
x[578] 0
x[579] 0
x[580] 0
x[581] 1
x[582] 0
x[583] -1.0109365547359420e-07
x[584] 9.9999983064106512e-01
x[585] 0
x[586] 1
x[587] -1.0105828269597939e-07
x[588] 0
x[589] 0
x[590] 1.0000001043955742e+00
x[591] 0
x[592] 1
x[593] -1.0448916457608180e-07
x[594] 0
x[595] 0
x[596] 0
x[597] 1
x[598] 0
x[599] 0
x[600] -6.2693498918982584e-08
x[601] 0
x[602] -1.0115583109862010e-07
x[603] 1
x[604] 0
x[605] 0
x[606] 1
x[607] 0
x[608] 0
x[609] 1.0000001044022846e+00
x[610] 1
x[611] 0
x[612] 0
x[613] 0
x[614] 1
x[615] 1
x[616] 1
x[617] 1.0000001044381366e+00
x[618] 0
x[619] -1.0448916509808726e-07
x[620] 0
x[621] 1
x[622] 0
x[623] 0
x[624] 1
x[625] 0
x[626] 0
x[627] 1
x[628] 0
x[629] 0
x[630] 1
x[631] 0
x[632] 1
x[633] -1.0448916466964134e-07
x[634] 1
x[635] 1
x[636] -2.9605263498392039e-08
x[637] 0
x[638] 0
x[639] 1
x[640] 0
x[641] 4.5971757251202869e-07
x[642] 0
x[643] 0
x[644] 1.0000001044444464e+00
x[645] 0
x[646] 1
x[647] 0
x[648] 0
x[649] 1
x[650] 0
x[651] 1
x[652] 0
x[653] 0
x[654] 0
x[655] 1
x[656] 0
x[657] 0
x[658] 4.1708911238608785e-08
x[659] -5.9238923508230890e-08
x[660] 0
x[661] 0
x[662] 1
x[663] 1
x[664] 0
x[665] 0
x[666] 1
x[667] 0
x[668] 1
x[669] 1
x[670] 0
x[671] 1.0000001044341869e+00
x[672] 0
x[673] 1
x[674] 0
x[675] 0
x[676] 0
x[677] 1
x[678] 0
x[679] 0
x[680] 9.9999969683178280e-01
x[681] 1
x[682] 9.9999995820433329e-01
x[683] 1
x[684] 1
x[685] 1
x[686] 1
x[687] 1
x[688] 0
x[689] -1.0448916457608180e-07
x[690] 1
x[691] 0
x[692] 0
x[693] 0
x[694] 0
x[695] 1
x[696] 1
x[697] 1.0000001044309816e+00
x[698] 0
x[699] -1.0110085350325365e-07
x[700] 1
x[701] 1
x[702] 1
x[703] -5.7758717073201713e-08
x[704] -4.1795665883557462e-07
x[705] 0
x[706] 1
x[707] 1
x[708] 0
x[709] 1
x[710] 1
x[711] 0
x[712] 0
x[713] 0
x[714] 1
x[715] 1
x[716] 0
x[717] 1
x[718] 0
x[719] 1.0000000295309119e+00
x[720] 0
x[721] -6.2693498836807748e-08
x[722] 1
x[723] 0
x[724] 1.0000001043877789e+00
x[725] 0
x[726] 0
x[727] 1.0000001044301658e+00
x[728] 1
x[729] 0
x[730] 0
x[731] 1
x[732] 0
x[733] 0
x[734] 0
x[735] 0
x[736] 1
x[737] 1
x[738] 1.0000001044418851e+00
x[739] 1
x[740] 1
x[741] 1
x[742] 0
x[743] 0
x[744] 0
x[745] 0
x[746] 1
x[747] 1
x[748] 0
x[749] 0
x[750] 1
x[751] 9.9999954358100784e-01
x[752] 1.0000001044387383e+00
x[753] 1.0000001043981115e+00
x[754] 0
x[755] 1
x[756] 0
x[757] 1
x[758] 1
x[759] 1
x[760] 1
x[761] 0
x[762] 0
x[763] 1
x[764] 0
x[765] 1
x[766] 1
x[767] 0
x[768] 1
x[769] 1
x[770] 1
x[771] 1
x[772] 0
x[773] 1
x[774] 1
x[775] 0
x[776] 1.5316278384187170e-07
x[777] 0
x[778] 0
x[779] 0
x[780] 1
x[781] 1.0000001044265803e+00
x[782] 1
x[783] 1
x[784] 0
x[785] 1
x[786] 1
x[787] 0
x[788] -1.0448916465399805e-07
x[789] 0
x[790] 1
x[791] 8.7011284542292154e-08
x[792] -1.0448916465399805e-07
x[793] 1
x[794] -1.0448916457608180e-07
x[795] 1
x[796] 0
x[797] 1.7250179599074539e-07
x[798] 0
x[799] 0
x[800] 1
x[801] -4.1795665883803679e-07
x[802] 1.0000000591260150e+00
x[803] 0
x[804] 0
x[805] 1.0000000591374172e+00
x[806] -1.0448916443195344e-07
x[807] 1
x[808] 0
x[809] 1.0000001043417615e+00
x[810] -1.0448916491808066e-07
x[811] 2.9598927470105207e-07
x[812] 0
x[813] -1.0448916465399805e-07
x[814] 0
x[815] 0
x[816] 1
x[817] 0
x[818] 1
x[819] 1
x[820] 0
x[821] 0
x[822] 0
x[823] 1
x[824] 1.0000001044248872e+00
x[825] 0
x[826] 3.0646078850465752e-07
x[827] 0
x[828] 1
x[829] 0
x[830] 1
x[831] 0
x[832] 1
x[833] 1
x[834] 1.0000002088597675e+00
x[835] 1
x[836] 1
x[837] 1
x[838] 1
x[839] -2.0557210810700096e-07
x[840] 1
x[841] 1
x[842] 0
x[843] 0
x[844] -1.0448916465399805e-07
x[845] 0
x[846] 1
x[847] 1.0000001044357985e+00
x[848] -5.9210526703878941e-08
x[849] 9.9999954024767446e-01
x[850] 1
x[851] 0
x[852] 0
x[853] 1
x[854] 1
x[855] 0
x[856] 0
x[857] 1
x[858] -1.0110480331342812e-07
x[859] 1
x[860] 1
x[861] 0
x[862] 0
x[863] 0
x[864] 1
x[865] 0
x[866] 0
x[867] 0
x[868] 1.0000002088804469e+00
x[869] 1
x[870] 1
x[871] 1
x[872] 0
x[873] 0
x[874] 1.0000001044193603e+00
x[875] 1
x[876] 0
x[877] 0
x[878] 1
x[879] 1
x[880] 1
x[881] 1
x[882] 0
x[883] 1
x[884] 1.0000001044537186e+00
x[885] 1
x[886] 0
x[887] 1
x[888] 0
x[889] 1
x[890] 1
x[891] 0
x[892] 1
x[893] 1
x[894] 1
x[895] 1
x[896] 1
x[897] 0
x[898] 1
x[899] 1
x[900] 0
x[901] 0
x[902] 1
x[903] 0
x[904] 0
x[905] 1.0000000295676843e+00
x[906] 0
x[907] 0
x[908] 0
x[909] 0
x[910] 0
x[911] 1
x[912] 0
x[913] 1
x[914] 0
x[915] 0
x[916] 0
x[917] 1
x[918] 0
x[919] 1
x[920] 0
x[921] 0
x[922] 0
x[923] 9.9999982082559125e-01
x[924] 0
x[925] 0
x[926] 1
x[927] 0
x[928] 0
x[929] 0
x[930] 0
x[931] -1.0448916465399805e-07
x[932] 1
x[933] 1
x[934] 1
x[935] 0
x[936] 0
x[937] 1
x[938] 0
x[939] 1
x[940] 0
x[941] 1
x[942] 1
x[943] 0
x[944] 0
x[945] 1
x[946] 0
x[947] 1
x[948] 0
x[949] 1
x[950] 1.0000001044540854e+00
x[951] -2.0897832940005235e-07
x[952] 1.8243404140405194e-07
x[953] 1.7263942902956929e-07
x[954] 0
x[955] 0
x[956] 0
x[957] 1
x[958] 0
x[959] 1
x[960] 1
x[961] 0
x[962] 0
x[963] 1.0000001044425926e+00
x[964] 1.0000004178877233e+00
x[965] -1.2538699772205368e-07
x[966] 1
x[967] 1
x[968] 0
x[969] 1
x[970] 1
x[971] 1
x[972] 0
x[973] 0
x[974] 1
x[975] 0
x[976] 1.0000001043906865e+00
x[977] -1.0448916473309103e-07
x[978] 1
x[979] 0
x[980] 1
x[981] 1.0000001044473668e+00
x[982] 1
x[983] 0
x[984] 0
x[985] 0
x[986] 1
x[987] 0
x[988] 1
x[989] 0
x[990] 0
x[991] 0
x[992] 1
x[993] 0
x[994] 1
x[995] 1.0000003343130741e+00
x[996] 9.9999984674922471e-01
x[997] 1.0000002089173392e+00
x[998] 1
x[999] 0
